NAME : rnd48_50.tsp.tsp.optbc.tour
TYPE : TOUR
DIMENSION : 50
TOUR_SECTION
1
30
17
38
8
20
24
19
14
5
45
42
2
15
11
33
12
41
35
48
25
6
32
50
44
31
10
9
26
21
22
29
40
7
34
4
18
46
16
49
43
36
13
37
23
47
28
3
27
39
-1